20
PubChem 3D acetaminophen
O 3.8509 0.4516 0.0012
O -2.5999 1.4041 -0.0018
N -1.5705 -0.7171 0.0001
C -0.2066 -0.4231 -0.0002
C 0.2205 0.9047 0.0004
C 0.7298 -1.457 -0.0007
C 1.5841 1.1986 0.0002
C 2.0933 -1.1629 -0.0007
C 2.5204 0.1648 -0.0003
C -2.6485 0.1782 0.0009
C -3.9735 -0.542 0.001
H -0.4436 1.7577 0.0012
H 0.4113 -2.4963 -0.001
H -1.801 -1.7086 0.0001
H 1.9053 2.237 0.0009
H 2.818 -1.9726 -0.0008
H -4.0655 -1.1463 -0.9058
H -4.7904 0.1844 0.0288
H -4.0445 -1.1886 0.8802
H 3.965 1.4176 0.0017