27
PubChem CID 6305 Tryptophan
O 1.4762 -0.8154 1.7282
O 2.5598 -1.9472 0.0879
N -1.6474 2.0044 0.5482
N 3.8759 0.3655 -0.5832
C 0.1475 1.1323 -0.4236
C 1.5065 0.9845 -0.983
C -0.8667 0.1349 -0.3859
C 2.5601 0.4881 0.0402
C -1.9823 0.7078 0.2286
C -0.3625 2.2702 0.1579
C -0.9431 -1.2045 -0.8169
C -3.1751 0.0055 0.4346
C 2.2083 -0.8852 0.586
C -2.1298 -1.9193 -0.6176
C -3.2274 -1.3216 -0.0012
H 1.4724 0.2941 -1.837
H 1.8346 1.9497 -1.3927
H 2.6391 1.1902 0.8789
H 0.0723 3.2449 0.3304
H -2.262 2.6639 1.0051
H -0.1001 -1.6864 -1.3035
H -4.0301 0.4699 0.9143
H -2.1948 -2.9522 -0.949
H 4.5715 0.1348 0.1255
H 4.1549 1.2657 -0.9717
H -4.1393 -1.8953 0.1434
H 1.2617 -1.7057 2.0797