20
PubChem 3D ascorbic acid
O 0.0932 -1.1066 0.6445
O -1.3436 0.0892 -1.3863
O 0.8392 2.3901 0.2844
O -3.8929 -0.204 -0.3326
O 3.022 0.5695 -0.6056
O 1.9915 -2.156 -0.1376
C -0.3397 0.2618 0.7853
C -1.6059 0.4585 -0.033
C 0.8212 1.0265 0.2887
C -2.7464 -0.4082 0.4863
C 1.8077 0.2273 -0.1049
C 1.3536 -1.1481 0.1108
H -0.5154 0.4609 1.8484
H -1.9162 1.5092 -0.0432
H -2.4989 -1.4735 0.4351
H -3.0013 -0.1462 1.5179
H -1.0999 -0.8522 -1.3986
H 0.0039 2.6957 0.678
H -4.6023 -0.7644 0.0257
H 3.5024 -0.2572 -0.7856